benchmarks_vrp/att48_4.vrp
NAME: att48_4
TYPE: CVRP
COMMENT: (Rinaldi,Yarrow/Araque) - Cluster Nr.4
DIMENSION: 11
CAPACITY: 15
EDGE_WEIGHT_TYPE: ATT
NODE_COORD_TYPE: TWOD_COORDS
NODE_COORD_SECTION: 
5 4326 1426
6 4246 1701
7 5429 1408
9 5366 1733
2 3961 1370
10 5164 1440
8 6823 4674
3 4639 1629
11 4550 1219
1 4687 1373
4 4422 1249
DEPOT_SECTION: 
8
-1
DEMAND_SECTION: 
10 1
5 1
3 1
1 1
8 0
7 1
2 1
11 1
6 1
9 1
4 1
EOF
