benchmarks_vrp/att48_4.tour
NAME: att48_4 solution
TYPE: TOUR
TOUR_SECTION:
8 3 6 2 5 4 11 1 10 7 9 -1
-1
EOF